Instance name : RC105
Authors : Bent & Van Hentenryck
Date :    2001
Reference : Technical Report, CS-01-06, Department of Computer Science, Brown University, September 2001.
Solution
Route 1 : 90 53 66 56
Route 2 : 63 62 67 84 51 85 91
Route 3 : 72 71 81 41 54 96 94 93
Route 4 : 65 82 12 11 87 59 97 75 58
Route 5 : 33 76 89 48 21 25 24
Route 6 : 98 14 47 15 16 9 10 13 17
Route 7 : 42 61 8 6 46 4 3 1 100
Route 8 : 39 36 44 38 40 37 35 43 70
Route 9 : 83 19 23 18 22 49 20 77
Route 10 : 31 29 27 30 28 26 32 34 50 80
Route 11 : 92 95 64 99 52 86 57 74
Route 12 : 69 88 78 73 60
Route 13 : 2 45 5 7 79 55 68